
Gurobi 12.0.0 (mac64[arm], gurobi_cl) logging started Thu Aug 21 23:03:18 2025

Set parameter Username
Set parameter LicenseID to value 2595120
Set parameter LogFile to value "gurobi.log"
Using license file /Users/jonathan/gurobi.lic
Academic license - for non-commercial use only - expires 2025-12-04
